# Solution for model r3_t9_m6_2
# Finished Task: 9 / 9
# Makespan: 525.0, Total Distance: 235.0, Total Time: 0.9455
# R O S F
0 0 -1 6.0 6.0
1 1 4 102.0 102.0
2 2 3 78.0 78.0
3 2 10 196.0 235.0
4 1 7 235.0 274.0
5 2 8 339.0 372.0
6 1 -1 502.0 525.0
7 1 9 308.0 339.0
8 2 11 392.0 425.0
9 1 6 359.0 392.0
10 2 5 273.0 308.0
11 2 -1 466.0 502.0
